(set-info :smt-lib-version 2.6)
(set-logic UF)
(set-info :source |
Generated by: Andrew Reynolds
Generated on: 2017-04-28
Generator: Sledgehammer, converted to v2.6 by CVC4
Application: Verfication goals in Isabelle
Target solver: CVC4, Z3
Publications: "A Decision Procedure for (Co)Datatypes" by Andrew Reynolds and Jasmin Blanchette, CADE 2015.
|)
(set-info :license "https://creativecommons.org/licenses/by/4.0/")
(set-info :category "industrial")
(set-info :status unsat)


(declare-sort A$ 0)
(declare-sort A_set$ 0)
(declare-sort A_bool_fun$ 0)
(declare-sort A_a_bool_fun_fun$ 0)
(declare-sort A_list$ 0)
(declare-sort Color$ 0)
(declare-fun nil$ () A_list$)
(declare-fun hd$ (A_list$) A$)
(declare-fun tl$ (A_list$) A_list$)
(declare-fun cons$ (A$ A_list$) A_list$)
(declare-fun r$ () Color$)
(declare-fun b$ () Color$)
(declare-fun k$ () A$)
(declare-fun k$a () A$)
(declare-fun uu$ (A_set$) A_bool_fun$)
(declare-fun less$ () A_a_bool_fun_fun$)
(declare-fun member$ (A$ A_set$) Bool)
(declare-fun collect$ (A_bool_fun$) A_set$)
(declare-fun fun_app$ (A_bool_fun$ A$) Bool)
(declare-fun lexordp$ (A_a_bool_fun_fun$ A_list$ A_list$) Bool)
(declare-fun fun_app$a (A_a_bool_fun_fun$ A$) A_bool_fun$)
(declare-fun lexordp_eq$ (A_a_bool_fun_fun$ A_list$ A_list$) Bool)
(declare-fun greaterThanLessThan$ (A_a_bool_fun_fun$ A$ A$) A_set$)
(assert (forall ((?v0 A_set$) (?v1 A$)) (! (= (fun_app$ (uu$ ?v0) ?v1) (member$ ?v1 ?v0)) :pattern ((fun_app$ (uu$ ?v0) ?v1)))))
(assert (not (= k$ k$a)))
(assert (not (fun_app$ (fun_app$a less$ k$) k$a)))
(assert (not (fun_app$ (fun_app$a less$ k$a) k$)))
(assert (forall ((?v0 A$) (?v1 A$)) (= (not (fun_app$ (fun_app$a less$ ?v0) ?v1)) (or (fun_app$ (fun_app$a less$ ?v1) ?v0) (= ?v0 ?v1))) ))
(assert (forall ((?v0 A$) (?v1 A$)) (= (not (= ?v0 ?v1)) (or (fun_app$ (fun_app$a less$ ?v0) ?v1) (fun_app$ (fun_app$a less$ ?v1) ?v0))) ))
(assert (forall ((?v0 A$) (?v1 A$)) (=> (and (=> (fun_app$ (fun_app$a less$ ?v0) ?v1) false) (and (=> (= ?v0 ?v1) false) (=> (fun_app$ (fun_app$a less$ ?v1) ?v0) false))) false) ))
(assert (forall ((?v0 A$) (?v1 A$)) (=> (and (fun_app$ (fun_app$a less$ ?v0) ?v1) (=> (not false) (fun_app$ (fun_app$a less$ ?v1) ?v0))) false) ))
(assert (forall ((?v0 A$) (?v1 A$) (?v2 A$)) (=> (and (fun_app$ (fun_app$a less$ ?v0) ?v1) (fun_app$ (fun_app$a less$ ?v1) ?v2)) (fun_app$ (fun_app$a less$ ?v0) ?v2)) ))
(assert (forall ((?v0 A$) (?v1 A$) (?v2 A$)) (=> (and (fun_app$ (fun_app$a less$ ?v0) ?v1) (fun_app$ (fun_app$a less$ ?v1) ?v2)) (fun_app$ (fun_app$a less$ ?v0) ?v2)) ))
(assert (forall ((?v0 A$) (?v1 A$) (?v2 A$)) (=> (and (fun_app$ (fun_app$a less$ ?v0) ?v1) (fun_app$ (fun_app$a less$ ?v2) ?v0)) (fun_app$ (fun_app$a less$ ?v2) ?v1)) ))
(assert (forall ((?v0 A$) (?v1 A$)) (=> (and (fun_app$ (fun_app$a less$ ?v0) ?v1) (fun_app$ (fun_app$a less$ ?v1) ?v0)) false) ))
(assert (forall ((?v0 A$) (?v1 A$)) (=> (and (fun_app$ (fun_app$a less$ ?v0) ?v1) (fun_app$ (fun_app$a less$ ?v1) ?v0)) false) ))
(assert (forall ((?v0 A$) (?v1 A$)) (=> (and (fun_app$ (fun_app$a less$ ?v0) ?v1) (fun_app$ (fun_app$a less$ ?v1) ?v0)) false) ))
(assert (forall ((?v0 A$) (?v1 A$) (?v2 A$)) (=> (and (fun_app$ (fun_app$a less$ ?v0) ?v1) (= ?v1 ?v2)) (fun_app$ (fun_app$a less$ ?v0) ?v2)) ))
(assert (forall ((?v0 A$) (?v1 A$)) (=> (fun_app$ (fun_app$a less$ ?v0) ?v1) (= (= ?v1 ?v0) false)) ))
(assert (forall ((?v0 A$) (?v1 A$)) (=> (fun_app$ (fun_app$a less$ ?v0) ?v1) (= (= ?v0 ?v1) false)) ))
(assert (forall ((?v0 A$) (?v1 A$) (?v2 Bool)) (=> (fun_app$ (fun_app$a less$ ?v0) ?v1) (= (=> (fun_app$ (fun_app$a less$ ?v1) ?v0) ?v2) true)) ))
(assert (forall ((?v0 A$) (?v1 A$)) (=> (fun_app$ (fun_app$a less$ ?v0) ?v1) (= (not (fun_app$ (fun_app$a less$ ?v1) ?v0)) true)) ))
(assert (forall ((?v0 A$) (?v1 A$)) (=> (fun_app$ (fun_app$a less$ ?v0) ?v1) (not (fun_app$ (fun_app$a less$ ?v1) ?v0))) ))
(assert (forall ((?v0 A$) (?v1 A$)) (=> (fun_app$ (fun_app$a less$ ?v0) ?v1) (not (= ?v0 ?v1))) ))
(assert (forall ((?v0 A$) (?v1 A$)) (=> (fun_app$ (fun_app$a less$ ?v0) ?v1) (not (= ?v0 ?v1))) ))
(assert (forall ((?v0 A$) (?v1 A$)) (=> (fun_app$ (fun_app$a less$ ?v0) ?v1) (not (= ?v1 ?v0))) ))
(assert (forall ((?v0 A$) (?v1 A$) (?v2 A$)) (=> (and (= ?v0 ?v1) (fun_app$ (fun_app$a less$ ?v1) ?v2)) (fun_app$ (fun_app$a less$ ?v0) ?v2)) ))
(assert (forall ((?v0 A$) (?v1 A$)) (=> (not (fun_app$ (fun_app$a less$ ?v0) ?v1)) (= (not (fun_app$ (fun_app$a less$ ?v1) ?v0)) (= ?v1 ?v0))) ))
(assert (forall ((?v0 A$) (?v1 A$)) (=> (and (not (= ?v0 ?v1)) (and (=> (fun_app$ (fun_app$a less$ ?v0) ?v1) false) (=> (fun_app$ (fun_app$a less$ ?v1) ?v0) false))) false) ))
(assert (forall ((?v0 A$) (?v1 A$)) (or (fun_app$ (fun_app$a less$ ?v0) ?v1) (or (= ?v0 ?v1) (fun_app$ (fun_app$a less$ ?v1) ?v0))) ))
(assert (forall ((?v0 A$)) (not (fun_app$ (fun_app$a less$ ?v0) ?v0)) ))
(assert (forall ((?v0 A$)) (not (fun_app$ (fun_app$a less$ ?v0) ?v0)) ))
(assert (forall ((?v0 A_list$) (?v1 A_list$) (?v2 A_list$)) (=> (and (lexordp_eq$ less$ ?v0 ?v1) (lexordp_eq$ less$ ?v1 ?v2)) (lexordp_eq$ less$ ?v0 ?v2)) ))
(assert (forall ((?v0 A_list$) (?v1 A_list$)) (=> (and (lexordp_eq$ less$ ?v0 ?v1) (lexordp_eq$ less$ ?v1 ?v0)) (= ?v0 ?v1)) ))
(assert (forall ((?v0 A_list$)) (lexordp_eq$ less$ ?v0 ?v0) ))
(assert (forall ((?v0 A_list$) (?v1 A_list$)) (or (lexordp_eq$ less$ ?v0 ?v1) (lexordp_eq$ less$ ?v1 ?v0)) ))
(assert (forall ((?v0 A_list$) (?v1 A_list$) (?v2 A_list$)) (=> (and (lexordp$ less$ ?v0 ?v1) (lexordp$ less$ ?v1 ?v2)) (lexordp$ less$ ?v0 ?v2)) ))
(assert (forall ((?v0 A_list$) (?v1 A_list$)) (=> (and (lexordp$ less$ ?v0 ?v1) (lexordp$ less$ ?v1 ?v0)) false) ))
(assert (forall ((?v0 A_list$)) (=> (forall ((?v1 A$)) (not (fun_app$ (fun_app$a less$ ?v1) ?v1)) ) (not (lexordp$ less$ ?v0 ?v0))) ))
(assert (forall ((?v0 A_list$) (?v1 A_list$)) (or (lexordp$ less$ ?v0 ?v1) (or (= ?v0 ?v1) (lexordp$ less$ ?v1 ?v0))) ))
(assert (forall ((?v0 A_list$)) (not (lexordp$ less$ ?v0 ?v0)) ))
(assert (forall ((?v0 A$) (?v1 A$) (?v2 A$)) (= (member$ ?v0 (greaterThanLessThan$ less$ ?v1 ?v2)) (and (fun_app$ (fun_app$a less$ ?v1) ?v0) (fun_app$ (fun_app$a less$ ?v0) ?v2))) ))
(assert (forall ((?v0 A_list$) (?v1 A_list$)) (=> (lexordp$ less$ ?v0 ?v1) (lexordp_eq$ less$ ?v0 ?v1)) ))
(assert (forall ((?v0 A_list$) (?v1 A_list$)) (! (= (lexordp_eq$ less$ ?v0 ?v1) (or (= ?v0 ?v1) (lexordp$ less$ ?v0 ?v1))) :pattern ((lexordp_eq$ less$ ?v0 ?v1)))))
(assert (forall ((?v0 A_list$) (?v1 A_list$)) (! (= (lexordp$ less$ ?v0 ?v1) (and (lexordp_eq$ less$ ?v0 ?v1) (not (lexordp_eq$ less$ ?v1 ?v0)))) :pattern ((lexordp$ less$ ?v0 ?v1)))))
(assert (forall ((?v0 A_bool_fun$) (?v1 A_bool_fun$)) (=> (forall ((?v2 A$)) (= (fun_app$ ?v0 ?v2) (fun_app$ ?v1 ?v2)) ) (= (collect$ ?v0) (collect$ ?v1))) ))
(assert (forall ((?v0 A_set$)) (= (collect$ (uu$ ?v0)) ?v0) ))
(assert (forall ((?v0 A$) (?v1 A_bool_fun$)) (= (member$ ?v0 (collect$ ?v1)) (fun_app$ ?v1 ?v0)) ))
(assert (forall ((?v0 Color$)) (=> (and (=> (= ?v0 r$) false) (=> (= ?v0 b$) false)) false) ))
(assert (not (= r$ b$)))
(check-sat)
(exit)

